
Gurobi 8.1.1 (win64) logging started 11/24/19 12:59:51

Changed value of parameter LogFile to logs/full/ip/full-05-30-0.log
   Prev: gurobi.log  Default: 
Changed value of parameter LogToConsole to 0
   Prev: 1  Min: 0  Max: 1  Default: 1
Changed value of parameter TimeLimit to 3600.0
   Prev: 1e+100  Min: 0.0  Max: 1e+100  Default: 1e+100
Optimize a model with 1230 rows, 572 columns and 4585 nonzeros
Variable types: 0 continuous, 572 integer (561 binary)
Coefficient statistics:
  Matrix range     [1e+00, 2e+02]
  Objective range  [1e+00, 1e+00]
  Bounds range     [1e+00, 1e+00]
  RHS range        [1e+00, 3e+02]
Presolve removed 3 rows and 3 columns
Presolve time: 0.02s
Presolved: 1227 rows, 569 columns, 4576 nonzeros
Variable types: 0 continuous, 569 integer (558 binary)

Root relaxation: objective 4.076923e+00, 457 iterations, 0.01 seconds

    Nodes    |    Current Node    |     Objective Bounds      |     Work
 Expl Unexpl |  Obj  Depth IntInf | Incumbent    BestBd   Gap | It/Node Time

     0     0    4.07692    0   74          -    4.07692      -     -    0s
H    0     0                      11.0000000    4.07692  62.9%     -    0s
     0     0    5.00000    0   32   11.00000    5.00000  54.5%     -    0s
H    0     0                      10.0000000    5.00000  50.0%     -    0s
     0     0    5.00000    0   13   10.00000    5.00000  50.0%     -    0s
H    0     0                       5.0000000    5.00000  0.00%     -    0s
     0     0    5.00000    0   23    5.00000    5.00000  0.00%     -    0s

Explored 1 nodes (2224 simplex iterations) in 0.21 seconds
Thread count was 4 (of 4 available processors)

Solution count 3: 5 10 11 

Optimal solution found (tolerance 1.00e-04)
Best objective 5.000000000000e+00, best bound 5.000000000000e+00, gap 0.0000%
